lattice_vector      20.421240  0.000000  0.0 
lattice_vector     -10.210624 17.685312  0.0 
lattice_vector       0.000000  0.000000 40.0
atom	3.57944300	13.17805200	10.86545000	H
atom	2.64507900	12.09282700	11.48587400	H
atom	1.05824700	9.42241700	11.50939900	H
atom	0.62059000	8.06459100	10.87702600	H
atom	6.07462200	10.48784900	10.93600000	H
atom	4.60831500	11.20934000	10.94707500	H
atom	4.54032500	6.64545100	10.77337500	H
atom	4.57365200	5.06342900	10.88302500	H
atom	4.27088600	8.97329700	10.77409900	H
atom	2.81670000	8.26176500	10.92595000	H
atom	0.23804800	11.71149700	11.94927500	H
atom	0.66685200	11.43932100	10.47255000	H
atom	8.20084100	9.68444200	11.15539900	H
atom	8.21362500	11.18132600	10.80090000	H
atom	3.58133200	12.40614000	11.46655000	O
atom	1.27436500	8.45863700	11.48937500	O
atom	5.13613400	10.42356400	10.59585000	O
atom	5.07633100	5.83088300	10.55340000	O
atom	3.75310600	8.14368000	10.56312500	O
atom	0.93717900	11.28904800	11.41637500	O
atom	7.74783700	10.52484700	11.36115000	O
atom	0.00000000	0.00000000	0.00000000	Cu
atom	0.00001000	1.47377000	2.08422500	Cu
atom	1.27615400	0.73537300	4.16210000	Cu
atom	10.20988100	17.68333200	6.24047500	Cu
atom	-0.00635100	1.46692600	8.32342500	Cu
atom	-1.27632800	2.21066400	0.00000000	Cu
atom	2.55265500	0.00000000	0.00000000	Cu
atom	1.27632700	2.21066400	0.00000000	Cu
atom	-1.27631800	3.68443400	2.08422500	Cu
atom	2.55266500	1.47377000	2.08422500	Cu
atom	1.27633700	3.68443400	2.08422500	Cu
atom	-0.00167500	2.94570100	4.16190000	Cu
atom	3.82910500	0.73330400	4.15842500	Cu
atom	2.55281800	2.94623200	4.15752500	Cu
atom	19.14313500	2.20981500	6.24177500	Cu
atom	-2.55796600	8.84587500	6.23915000	Cu
atom	1.27432600	2.20585400	6.23810000	Cu
atom	-1.28497700	3.68107400	8.32357500	Cu
atom	2.54507800	1.45804800	8.32217500	Cu
atom	1.25975500	3.66770400	8.32205000	Cu
atom	-2.55265600	4.42132800	0.00000000	Cu
atom	5.10531000	0.00000000	0.00000000	Cu
atom	2.55265400	4.42132800	0.00000000	Cu
atom	-2.55264600	5.89509800	2.08422500	Cu
atom	5.10532000	1.47377000	2.08422500	Cu
atom	2.55266400	5.89509800	2.08422500	Cu
atom	-1.27897300	5.15680700	4.16155000	Cu
atom	6.38010500	0.73454200	4.15900000	Cu
atom	3.83108500	5.16835500	4.16840000	Cu
atom	17.86585600	4.42191200	6.24235000	Cu
atom	-0.01327600	8.84810300	6.21237500	Cu
atom	2.55008100	4.41450200	6.22082500	Cu
atom	-2.56127400	5.89550500	8.32525000	Cu
atom	5.10274600	1.46156700	8.31880000	Cu
atom	2.49575000	5.85926800	8.27452500	Cu
atom	-3.82898400	6.63199200	0.00000000	Cu
atom	3.82898200	2.21066400	0.00000000	Cu
atom	1.27632600	6.63199200	0.00000000	Cu
atom	-0.00000100	4.42132800	0.00000000	Cu
atom	7.65796500	0.00000000	0.00000000	Cu
atom	5.10530900	4.42132800	0.00000000	Cu
atom	-1.27632900	6.63199200	0.00000000	Cu
atom	6.38163700	2.21066400	0.00000000	Cu
atom	3.82898100	6.63199200	0.00000000	Cu
atom	-3.82897400	8.10576200	2.08422500	Cu
atom	3.82899200	3.68443400	2.08422500	Cu
atom	1.27633600	8.10576200	2.08422500	Cu
atom	0.00000900	5.89509800	2.08422500	Cu
atom	7.65797500	1.47377000	2.08422500	Cu
atom	5.10531900	5.89509800	2.08422500	Cu
atom	-1.27631900	8.10576200	2.08422500	Cu
atom	6.38164700	3.68443400	2.08422500	Cu
atom	3.82899100	8.10576200	2.08422500	Cu
atom	-2.55485200	7.36948700	4.16222500	Cu
atom	5.10439100	2.95468500	4.16377500	Cu
atom	2.56156800	7.36485400	4.16667500	Cu
atom	1.27566300	5.15677200	4.15807500	Cu
atom	8.93331200	0.73588600	4.16217500	Cu
atom	6.37893100	5.15970800	4.16135000	Cu
atom	-0.00181900	7.36667500	4.15560000	Cu
atom	7.65686100	2.94764600	4.16110000	Cu
atom	5.10254100	7.37670300	4.17990000	Cu
atom	16.58989700	6.63338900	6.24165000	Cu
atom	3.82882900	2.19724100	6.22505000	Cu
atom	1.26992400	6.62974600	6.21950000	Cu
atom	-0.00467800	4.41934700	6.23872500	Cu
atom	-2.55391500	17.68073300	6.23962500	Cu
atom	5.10266400	4.43015300	6.25517500	Cu
atom	-1.28212800	6.63277000	6.23715000	Cu
atom	6.37930900	2.19973400	6.22790000	Cu
atom	3.84043700	6.63977400	6.29980000	Cu
atom	-3.83472300	8.10744200	8.32512600	Cu
atom	1.22254700	8.10137700	8.26917600	Cu
atom	-0.02373100	5.89186200	8.32582500	Cu
atom	7.66329500	1.45727000	8.32109900	Cu
atom	5.12135900	5.85125600	8.40420000	Cu
atom	-1.29340100	8.10892800	8.32305000	Cu
atom	6.40133300	3.64244900	8.28717500	Cu
atom	3.77908100	8.11237600	8.39732600	Cu
atom	3.80437400	3.64579200	8.27870000	Cu
atom	-5.10531200	8.84265600	0.00000000	Cu
atom	10.21062000	0.00000000	0.00000000	Cu
atom	5.10530800	8.84265600	0.00000000	Cu
atom	-5.10530200	10.31642600	2.08422500	Cu
atom	10.21062900	1.47377000	2.08422500	Cu
atom	5.10531700	10.31642600	2.08422500	Cu
atom	-3.83171100	9.58057500	4.16237500	Cu
atom	11.48617100	0.73669900	4.16317500	Cu
atom	6.36950500	9.57521700	4.17002500	Cu
atom	15.31385400	8.84345200	6.24150000	Cu
atom	-0.00144400	17.68398700	6.24095000	Cu
atom	5.08638800	8.85494700	6.30835000	Cu
atom	-5.10706900	10.31729300	8.32590000	Cu
atom	10.21321200	1.46880100	8.32372600	Cu
atom	5.11774400	10.36451200	8.41575000	Cu
atom	-6.38164000	11.05332000	0.00000000	Cu
atom	8.93429200	2.21066400	0.00000000	Cu
atom	3.82898000	11.05332000	0.00000000	Cu
atom	-2.55265700	8.84265600	0.00000000	Cu
atom	12.76327500	0.00000000	0.00000000	Cu
atom	7.65796300	8.84265600	0.00000000	Cu
atom	-3.82898500	11.05332000	0.00000000	Cu
atom	11.48694700	2.21066400	0.00000000	Cu
atom	6.38163500	11.05332000	0.00000000	Cu
atom	-6.38163000	12.52709100	2.08422500	Cu
atom	8.93430100	3.68443400	2.08422500	Cu
atom	3.82898900	12.52709100	2.08422500	Cu
atom	-2.55264700	10.31642600	2.08422500	Cu
atom	12.76328500	1.47377000	2.08422500	Cu
atom	7.65797200	10.31642600	2.08422500	Cu
atom	-3.82897500	12.52709100	2.08422500	Cu
atom	11.48695700	3.68443400	2.08422500	Cu
atom	6.38164400	12.52709100	2.08422500	Cu
atom	-5.10761000	11.79046200	4.16260000	Cu
atom	10.21088500	2.94665600	4.16235000	Cu
atom	5.10453200	11.78895900	4.16027500	Cu
atom	-1.28128100	9.58093000	4.15427500	Cu
atom	14.03887700	0.73650500	4.16332500	Cu
atom	8.93253400	9.57822300	4.15477500	Cu
atom	-2.55860000	11.79295500	4.15892500	Cu
atom	12.76261100	2.94738100	4.16292500	Cu
atom	7.65036600	11.78605800	4.16142500	Cu
atom	14.03896700	11.05349700	6.24190000	Cu
atom	8.93409800	2.20686200	6.23895000	Cu
atom	3.84057900	11.05017300	6.25560000	Cu
atom	-7.65878600	17.67990100	6.23985000	Cu
atom	7.65970800	8.84210800	6.21682500	Cu
atom	2.55098700	17.68472900	6.24215000	Cu
atom	-3.83383500	11.05482300	6.24147500	Cu
atom	11.48651900	2.20988600	6.24145000	Cu
atom	6.36887300	11.04882800	6.25435000	Cu
atom	-6.38169100	12.52631300	8.32595000	Cu
atom	8.94436900	3.67364600	8.32060000	Cu
atom	3.80959000	12.56822700	8.27430000	Cu
atom	-2.55888600	10.31976900	8.32505000	Cu
atom	12.76358100	1.47269100	8.32455000	Cu
atom	7.69373100	10.32081100	8.27170000	Cu
atom	-3.83011800	12.52705500	8.32665000	Cu
atom	11.49121500	3.68169300	8.32355000	Cu
atom	6.39874900	12.57061300	8.28522500	Cu
atom	-7.65796800	13.26398500	0.00000000	Cu
atom	7.65796400	4.42132800	0.00000000	Cu
atom	2.55265200	13.26398500	0.00000000	Cu
atom	-0.00000200	8.84265600	0.00000000	Cu
atom	15.31592900	0.00000000	0.00000000	Cu
atom	10.21061700	8.84265600	0.00000000	Cu
atom	-2.55265800	13.26398500	0.00000000	Cu
atom	12.76327300	4.42132800	0.00000000	Cu
atom	7.65796200	13.26398500	0.00000000	Cu
atom	-7.65795900	14.73775500	2.08422500	Cu
atom	7.65797300	5.89509800	2.08422500	Cu
atom	2.55266100	14.73775500	2.08422500	Cu
atom	0.00000800	10.31642600	2.08422500	Cu
atom	15.31593900	1.47377000	2.08422500	Cu
atom	10.21062700	10.31642600	2.08422500	Cu
atom	-2.55264800	14.73775500	2.08422500	Cu
atom	12.76328300	5.89509800	2.08422500	Cu
atom	7.65797000	14.73775500	2.08422500	Cu
atom	-6.38207900	14.00013500	4.16205000	Cu
atom	8.93385100	5.15663100	4.16072500	Cu
atom	3.82997000	14.00367300	4.15707500	Cu
atom	1.28356500	9.57293600	4.15630000	Cu
atom	16.59170700	0.73669900	4.16362500	Cu
atom	11.48757900	9.58016900	4.16125000	Cu
atom	-1.28223200	14.00294700	4.15927500	Cu
atom	14.03909100	5.15852300	4.16295000	Cu
atom	8.93643200	14.00132100	4.15865000	Cu
atom	-7.65691600	13.26318800	6.24205000	Cu
atom	7.65891400	4.41763200	6.23395000	Cu
atom	2.54342200	13.27031500	6.21370000	Cu
atom	-5.10631400	17.67685900	6.23880000	Cu
atom	10.21413000	8.84548600	6.23410000	Cu
atom	5.10387600	17.68503000	6.24307500	Cu
atom	-2.55835500	13.26515100	6.24155000	Cu
atom	12.76342700	4.42138100	6.24117500	Cu
atom	7.66506000	13.26715000	6.22467500	Cu
atom	-7.65839700	14.73497800	8.32530000	Cu
atom	7.69397600	5.88116200	8.30125000	Cu
atom	2.54500500	14.74698500	8.32300000	Cu
atom	-0.02155700	10.32537500	8.29017500	Cu
atom	15.31393700	1.47387600	8.32557500	Cu
atom	10.22081800	10.32056500	8.32112500	Cu
atom	-2.55439400	14.73455300	8.32625000	Cu
atom	12.76657200	5.89481500	8.32372600	Cu
atom	7.66339400	14.74749900	8.32482500	Cu
atom	-8.93429600	15.47464800	0.00000000	Cu
atom	6.38163600	6.63199200	0.00000000	Cu
atom	1.27632400	15.47464800	0.00000000	Cu
atom	-1.27633000	11.05332000	0.00000000	Cu
atom	14.03960100	2.21066400	0.00000000	Cu
atom	8.93429000	11.05332000	0.00000000	Cu
atom	-3.82898600	15.47464800	0.00000000	Cu
atom	11.48694600	6.63199200	0.00000000	Cu
atom	6.38163400	15.47464800	0.00000000	Cu
atom	-5.10531200	13.26398500	0.00000000	Cu
atom	10.21061900	4.42132800	0.00000000	Cu
atom	5.10530800	13.26398500	0.00000000	Cu
atom	2.55265300	8.84265600	0.00000000	Cu
atom	17.86858600	0.00000000	0.00000000	Cu
atom	12.76327300	8.84265600	0.00000000	Cu
atom	-0.00000300	13.26398500	0.00000000	Cu
atom	15.31592900	4.42132800	0.00000000	Cu
atom	10.21061800	13.26398500	0.00000000	Cu
atom	-6.38164000	15.47464800	0.00000000	Cu
atom	8.93429200	6.63199200	0.00000000	Cu
atom	3.82897900	15.47464800	0.00000000	Cu
atom	1.27632500	11.05332000	0.00000000	Cu
atom	16.59225800	2.21066400	0.00000000	Cu
atom	11.48694600	11.05332000	0.00000000	Cu
atom	-1.27633100	15.47464800	0.00000000	Cu
atom	14.03960200	6.63199200	0.00000000	Cu
atom	8.93429000	15.47464800	0.00000000	Cu
atom	-8.93428600	16.94842000	2.08422500	Cu
atom	6.38164500	8.10576200	2.08422500	Cu
atom	1.27633300	16.94842000	2.08422500	Cu
atom	-1.27632000	12.52709100	2.08422500	Cu
atom	14.03961100	3.68443400	2.08422500	Cu
atom	8.93429900	12.52709100	2.08422500	Cu
atom	-3.82897600	16.94842000	2.08422500	Cu
atom	11.48695500	8.10576200	2.08422500	Cu
atom	6.38164200	16.94842000	2.08422500	Cu
atom	-5.10530300	14.73775500	2.08422500	Cu
atom	10.21062900	5.89509800	2.08422500	Cu
atom	5.10531600	14.73775500	2.08422500	Cu
atom	2.55266300	10.31642600	2.08422500	Cu
atom	17.86859500	1.47377000	2.08422500	Cu
atom	12.76328300	10.31642600	2.08422500	Cu
atom	0.00000700	14.73775500	2.08422500	Cu
atom	15.31593900	5.89509800	2.08422500	Cu
atom	10.21062700	14.73775500	2.08422500	Cu
atom	-6.38163100	16.94842000	2.08422500	Cu
atom	8.93430000	8.10576200	2.08422500	Cu
atom	3.82898800	16.94842000	2.08422500	Cu
atom	1.27633500	12.52709100	2.08422500	Cu
atom	16.59226600	3.68443400	2.08422500	Cu
atom	11.48695500	12.52709100	2.08422500	Cu
atom	-1.27632100	16.94842000	2.08422500	Cu
atom	14.03961100	8.10576200	2.08422500	Cu
atom	8.93429900	16.94842000	2.08422500	Cu
atom	-7.65792800	16.21039200	4.16257500	Cu
atom	7.64796700	7.36358000	4.16605000	Cu
atom	2.55099800	16.21247900	4.16235000	Cu
atom	-0.00427100	11.79164600	4.15082500	Cu
atom	15.31543900	2.94736300	4.16302500	Cu
atom	10.21255700	11.79143400	4.15762500	Cu
atom	-2.55497600	16.21157800	4.16282500	Cu
atom	12.76270200	7.36943400	4.16277500	Cu
atom	7.65877800	16.21244400	4.16242500	Cu
atom	-3.83233400	14.00117800	4.16217500	Cu
atom	11.48691600	5.15825700	4.16262500	Cu
atom	6.38188000	14.00213300	4.15905000	Cu
atom	3.83188100	9.57748000	4.16852500	Cu
atom	19.14469700	0.73661100	4.16315000	Cu
atom	14.03879400	9.57986800	4.16295000	Cu
atom	1.27260800	14.00344300	4.15412500	Cu
atom	16.59157200	5.15871700	4.16317500	Cu
atom	11.48907900	14.00158500	4.16130000	Cu
atom	-5.10633500	16.20926100	4.16170000	Cu
atom	10.21043500	7.36840900	4.15967500	Cu
atom	5.10562400	16.21306200	4.16222500	Cu
atom	2.56079100	11.78589900	4.15852500	Cu
atom	17.86801100	2.94750500	4.16362500	Cu
atom	12.76392600	11.79072800	4.16200000	Cu
atom	-0.00244300	16.21179000	4.16232500	Cu
atom	15.31506100	7.36938100	4.16292500	Cu
atom	10.21104600	16.21092200	4.16302500	Cu
atom	-8.93339700	15.47326900	6.24155000	Cu
atom	6.36497300	6.61784400	6.26080000	Cu
atom	1.27183200	15.47486000	6.23917500	Cu
atom	-1.28953200	11.05988100	6.22480000	Cu
atom	14.03871300	2.21039900	6.24180000	Cu
atom	8.94145800	11.05880300	6.21882500	Cu
atom	-3.83107900	15.47148200	6.24172500	Cu
atom	11.48761000	6.63338900	6.24015000	Cu
atom	6.38240000	15.47650500	6.24060000	Cu
atom	-5.10727300	13.26295900	6.24202500	Cu
atom	10.21221300	4.42051500	6.23977500	Cu
atom	5.10616400	13.27010300	6.22587500	Cu
atom	2.55812600	8.83335300	6.24925000	Cu
atom	7.65709400	17.68522500	6.24175000	Cu
atom	12.76367100	8.84384100	6.24135000	Cu
atom	-0.01211300	13.26971400	6.22437500	Cu
atom	15.31457100	4.42148700	6.24157500	Cu
atom	10.21659100	13.26686800	6.23620000	Cu
atom	-6.38219200	15.47072100	6.24130000	Cu
atom	8.93685300	6.63247000	6.23085000	Cu
atom	3.82656900	15.47769100	6.23812500	Cu
atom	1.26603300	11.05749300	6.20062500	Cu
atom	16.59052300	2.21055800	6.24207500	Cu
atom	11.49012100	11.05538900	6.23877500	Cu
atom	-1.28034400	15.47434800	6.24102500	Cu
atom	14.03900900	6.63262900	6.24105000	Cu
atom	8.93562600	15.47466700	6.24052500	Cu
atom	-8.93686900	16.94288300	8.32407500	Cu
atom	6.42681800	8.10555000	8.27100000	Cu
atom	1.27427200	16.94827700	8.32480000	Cu
atom	-3.82986500	16.94157400	8.32402500	Cu
atom	11.49146800	8.10799000	8.32370000	Cu
atom	6.37997100	16.95061100	8.32510000	Cu
atom	-5.10634500	14.73432400	8.32585000	Cu
atom	10.22386200	5.89269300	8.32215000	Cu
atom	5.10065100	14.74894900	8.32582500	Cu
atom	2.50354000	10.35227400	8.25950000	Cu
atom	17.86428600	1.47256800	8.32440000	Cu
atom	12.76553000	10.31780500	8.32522500	Cu
atom	-0.00503700	14.73835600	8.32490100	Cu
atom	15.31346800	5.89502700	8.32477500	Cu
atom	10.21181100	14.73701200	8.32460000	Cu
atom	-6.38328500	16.94120400	8.32402500	Cu
atom	8.95201700	8.10475400	8.31640000	Cu
atom	3.82637600	16.95029300	8.32667500	Cu
atom	1.25752700	12.54176900	8.28892500	Cu
atom	16.58796900	3.68339100	8.32505000	Cu
atom	11.48777100	12.52755000	8.32602500	Cu
atom	-1.27642300	16.94290000	8.32472500	Cu
atom	14.03943700	8.10641700	8.32467600	Cu
atom	8.93310400	16.94861200	8.32427500	Cu
atom	-1.27909800	12.52758600	8.32640000	Cu
atom	14.03947800	3.68363800	8.32510000	Cu
atom	8.94053800	12.53128100	8.31472500	Cu
